Traveling Salesman Problem/TSP_generados/Aleatorio1620390958_10.tsp
NAME: Aleatorio1620390958_10.tsp
COMMENT: Randomly generated scenario
TYPE: TSP
DIMENSION: 10
EDGE_WEIGHT_TYPE: ATT
NODE_COORD_SECTION
1 24.92 4.16
2 11.27 37.23
3 8.9 40.34
4 40.18 29.86
5 4.83 45.98
6 42.75 11.86
7 4.13 33.58
8 6.68 30.34
9 0.73 41.16
10 23.32 20.22
