Traveling Salesman Problem/TSP_generados/Aleatorio1620390958_10.opt.tour
NAME: Aleatorio1620390958_10.opt.tour
COMMENT: Optimal solution for Aleatorio1620390958_10 (132.67794145449122)
TYPE: TOUR
DIMENSION: 10
TOUR_SECTION
1 6 4 2 3 5 9 7 8 10
-1
EOF
